Route #1: 1 8 17 19 30 20 33 22 42 1
Route #2: 1 6 18 41 21 40 37 3 15 27 25 12 1
Route #3: 1 5 9 43 31 23 39 1
Route #4: 1 2 26 29 13 28 1
Route #5: 1 4 34 44 32 16 36 1
Route #6: 1 24 11 10 1
Route #7: 1 14 35 38 7 1
cost 1006.9212535363862